(set-logic QF_BV)
(declare-fun _substvar_413_ () (_ BitVec 47))
(declare-fun _substvar_541_ () (_ BitVec 47))
(declare-fun _substvar_624_ () Bool)
(declare-fun _substvar_303_ () (_ BitVec 47))
(declare-fun _substvar_503_ () (_ BitVec 47))
(assert (and true true true true true true true true true true true true true true true true true true true true true true true true true true true true true true true true true true true true true true true true true true true true true true true true true true true true true true true true true true true true true true true true true true true true true true true true true true true true true true true true true true true true true true true true true true true true true true true true true true true true true true true true true true true true true true true true true true true true true true true true true true true true true true true true true true true true true true true true true true true true true true true true true true true true true true true true true true true true (= _substvar_303_ (_ bv0 47)) (ite _substvar_624_ (= _substvar_413_ (_ bv0 47)) (= _substvar_413_ (concat ((_ extract 45 0) _substvar_303_) (_ bv0 1)))) (= _substvar_503_ (concat ((_ extract 45 0) _substvar_413_) (bvxor ((_ extract 46 46) _substvar_413_) ((_ extract 41 41) _substvar_413_)))) (= _substvar_541_ (concat ((_ extract 45 0) _substvar_503_) (_ bv0 1))) true true true true true true true true true true true true true true true true true true true true true true true true true true true true true true true true true true true true true true true true true true true true true true true true true true true true true true true true true true true true true true true true true true true true true true true true true true true true true true true true true true true true true true true true true true true true true true true true true true true true true true true true true true true true true true true true true true true true true true true true true true true true true true true true true true true true (= (or false false false false false false false false false false false false false false false false false false false false false false false (= _substvar_541_ (_ bv0 47)) false false false false) false)))
(check-sat)
(exit)
